37429 40202 
36132 40438 
36331 40390 
36052 40485 
36655 40360 
37069 40225 
36744 40298 
36809 40257 
37716 39983 
38435 39687 
37627 40045 
38137 39838 
38596 39642 
39073 39321 
38820 39504 
39683 38864 
39325 39163 
39935 38706 
